This is Ipopt version 3.10.0, running with linear solver ma27.

Number of nonzeros in equality constraint Jacobian...:        0
Number of nonzeros in inequality constraint Jacobian.:       48
Number of nonzeros in Lagrangian Hessian.............:        0

Total number of variables............................:        6
                     variables with only lower bounds:        3
                variables with lower and upper bounds:        3
                     variables with only upper bounds:        0
Total number of equality constraints.................:        0
Total number of inequality constraints...............:        8
        inequality constraints with only lower bounds:        0
   inequality constraints with lower and upper bounds:        0
        inequality constraints with only upper bounds:        8

iter    objective    inf_pr   inf_du lg(mu)  ||d||  lg(rg) alpha_du alpha_pr  ls
   0  3.8436439e+00 3.01e+00 1.36e+00   0.0 0.00e+00    -  0.00e+00 0.00e+00   0
   1  5.7917557e+00 9.78e-01 2.45e+00  -0.2 2.52e+00    -  5.67e-01 1.00e+00f  1
   2  6.1376936e+00 5.44e-01 1.49e+00  -0.5 8.27e-01    -  7.96e-01 8.11e-01h  1
   3  7.6691666e+00 1.57e-01 5.43e+00  -0.9 5.96e-01    -  6.37e-01 9.93e-01h  1
   4  7.5454175e+00 7.79e-02 1.21e+00  -1.5 1.96e-01    -  9.98e-01 7.26e-01f  1
   5  7.7309742e+00 7.33e-03 2.48e+00  -1.8 1.53e-01    -  9.96e-01 1.00e+00h  1
   6  7.4704473e+00 5.19e-03 2.67e+00  -2.6 1.26e-01    -  1.00e+00 9.86e-01f  1
